s = array1d(1..400, [17, 0, 0, 19, 0, 1, 5, 0, 0, 6, 0, 2, 12, 0, 7, 3, 0, 15, 0, 0, 5, 0, 0, 0, 7, 3, 11, 0, 0, 0, 0, 0, 9, 2, 6, 16, 0, 0, 15, 1, 2, 10, 3, 1, 0, 0, 9, 0, 0, 0, 0, 8, 0, 14, 16, 0, 12, 13, 0, 0, 12, 0, 0, 0, 1, 0, 2, 0, 4, 10, 0, 7, 0, 0, 0, 9, 0, 16, 13, 11, 0, 4, 18, 0, 0, 10, 0, 0, 19, 5, 3, 0, 11, 12, 0, 6, 0, 2, 16, 0, 6, 2, 11, 0, 10, 0, 15, 7, 8, 18, 0, 5, 0, 0, 0, 0, 0, 0, 0, 9, 19, 0, 8, 0, 0, 5, 0, 0, 0, 17, 0, 0, 1, 3, 0, 0, 13, 11, 0, 18, 7, 16, 14, 0, 18, 0, 0, 9, 6, 4, 0, 0, 0, 5, 0, 0, 19, 0, 0, 3, 0, 0, 0, 9, 0, 4, 0, 0, 0, 0, 7, 12, 13, 0, 8, 0, 14, 17, 0, 16, 0, 0, 9, 3, 11, 0, 18, 12, 15, 0, 10, 0, 16, 13, 0, 2, 5, 0, 0, 0, 10, 0, 0, 16, 2, 0, 14, 5, 0, 19, 6, 13, 0, 7, 0, 8, 0, 0, 9, 0, 0, 11, 0, 7, 13, 0, 1, 6, 0, 16, 0, 0, 10, 18, 17, 15, 0, 0, 0, 2, 0, 1, 13, 0, 14, 0, 0, 18, 12, 0, 0, 0, 6, 0, 0, 17, 2, 0, 7, 10, 0, 6, 0, 0, 15, 0, 12, 16, 0, 0, 4, 17, 19, 0, 14, 0, 7, 18, 0, 0, 0, 0, 10, 13, 0, 9, 4, 0, 17, 0, 16, 19, 7, 0, 2, 0, 15, 5, 0, 0, 13, 5, 7, 2, 0, 16, 0, 0, 0, 9, 15, 14, 0, 19, 4, 0, 0, 0, 0, 6, 0, 17, 5, 4, 0, 0, 0, 2, 9, 8, 0, 0, 0, 0, 18, 10, 0, 6, 19, 0, 14, 0, 12, 11, 0, 18, 0, 0, 0, 0, 19, 0, 0, 9, 13, 0, 4, 1, 2, 0, 0, 0, 0, 0, 19, 2, 13, 0, 14, 0, 11, 0, 8, 15, 9, 0, 0, 0, 3, 4, 0, 19, 0, 15, 16, 0, 0, 13, 7, 0, 8, 0, 0, 0, 0, 11, 3, 9, 6, 0]);
n = 20;
